HFSDDW
15	9	3
0	83	1	12	2	77
0	5	1	52	2	90
0	23	1	56	2	45
0	73	1	49	2	42
0	37	1	33	2	73
0	68	1	4	2	2
0	24	1	40	2	17
0	28	1	95	2	4
0	14	1	39	2	70
0	22	1	39	2	85
0	73	1	25	2	11
0	18	1	51	2	43
0	37	1	63	2	51
0	21	1	46	2	31
0	19	1	68	2	34
LBCmax: 282
RELDUE
-1	201	2	1
-1	247	2	6
-1	252	1	3
-1	213	3	2
-1	197	8	3
-1	247	3	4
-1	251	5	1
-1	207	9	8
-1	231	1	3
-1	234	7	1
-1	228	5	7
-1	206	9	4
-1	239	9	8
-1	249	1	5
-1	204	5	9
DDW
195	207
230	264
232	272
204	222
195	199
235	259
246	256
195	219
215	247
229	239
210	246
192	220
234	244
224	274
190	218
